false true true
presolving:
presolving (0 rounds: 0 fast, 0 medium, 0 exhaustive):
 0 deleted vars, 0 deleted constraints, 0 added constraints, 0 tightened bounds, 0 added holes, 0 changed sides, 0 changed coefficients
 0 implications, 0 cliques
presolved problem has 86 variables (86 bin, 0 int, 0 impl, 0 cont) and 76 constraints
     76 constraints of type <linear>
transformed objective value is always integral (scale: 1)
Presolving Time: 0.00

 time | node  | left  |LP iter|LP it/n|mem/heur|mdpt |vars |cons |rows |cuts |sepa|confs|strbr|  dualbound   | primalbound  |  gap   | compl. 
p 0.0s|     1 |     0 |     0 |     - |shiftand|   0 |  86 |  76 |  76 |   0 |  0 |   0 |   0 |      --      | 1.000000e+01 |    Inf | unknown
 time | node  | left  |LP iter|LP it/n|mem/heur|mdpt |vars |cons |rows |cuts |sepa|confs|strbr|  dualbound   | primalbound  |  gap   | compl. 
  0.3s|     1 |     0 |    38 |     - |  6023k |   0 |1631 |  76 |  76 |   0 |  0 |   0 |   0 | 1.000000e+00 | 1.000000e+01 | 900.00%| unknown
 time | node  | left  |LP iter|LP it/n|mem/heur|mdpt |vars |cons |rows |cuts |sepa|confs|strbr|  dualbound   | primalbound  |  gap   | compl. 
 2875s|     1 |     0 |  2171 |     - |    23M |   0 |7451 |  76 |  76 |   0 |  0 |   0 |   0 | 8.000000e+00 | 1.000000e+01 |  25.00%| unknown
 time | node  | left  |LP iter|LP it/n|mem/heur|mdpt |vars |cons |rows |cuts |sepa|confs|strbr|  dualbound   | primalbound  |  gap   | compl. 
 2877s|     1 |     2 |  7265 |     - |    25M |   0 |7451 |  76 |  76 |   0 |  1 |   0 |   0 | 8.000000e+00 | 1.000000e+01 |  25.00%| unknown
 time | node  | left  |LP iter|LP it/n|mem/heur|mdpt |vars |cons |rows |cuts |sepa|confs|strbr|  dualbound   | primalbound  |  gap   | compl. 
 2877s|     2 |     3 |  7316 |  51.0 |    25M |   1 |7451 |  76 |  76 |   0 |  1 |   0 |   0 | 8.000000e+00 | 1.000000e+01 |  25.00%| unknown
 time | node  | left  |LP iter|LP it/n|mem/heur|mdpt |vars |cons |rows |cuts |sepa|confs|strbr|  dualbound   | primalbound  |  gap   | compl. 
 2877s|     3 |     4 |  7430 |  82.5 |    27M |   1 |7451 |  76 |  76 |   0 |  1 |   0 |   0 | 8.000000e+00 | 1.000000e+01 |  25.00%| unknown
 time | node  | left  |LP iter|LP it/n|mem/heur|mdpt |vars |cons |rows |cuts |sepa|confs|strbr|  dualbound   | primalbound  |  gap   | compl. 
 2878s|     4 |     5 |  7491 |  75.3 |    27M |   2 |7451 |  76 |  76 |   0 |  1 |   0 |   0 | 8.000000e+00 | 1.000000e+01 |  25.00%| unknown
 time | node  | left  |LP iter|LP it/n|mem/heur|mdpt |vars |cons |rows |cuts |sepa|confs|strbr|  dualbound   | primalbound  |  gap   | compl. 
 2879s|     5 |     6 |  8602 | 334.2 |    28M |   2 |7451 |  76 |  76 |   0 |  1 |   0 |   0 | 8.000000e+00 | 1.000000e+01 |  25.00%| unknown
 time | node  | left  |LP iter|LP it/n|mem/heur|mdpt |vars |cons |rows |cuts |sepa|confs|strbr|  dualbound   | primalbound  |  gap   | compl. 
 2879s|     6 |     7 |  8637 | 274.4 |    28M |   2 |7451 |  76 |  76 |   0 |  1 |   0 |   0 | 8.000000e+00 | 1.000000e+01 |  25.00%| unknown
 time | node  | left  |LP iter|LP it/n|mem/heur|mdpt |vars |cons |rows |cuts |sepa|confs|strbr|  dualbound   | primalbound  |  gap   | compl. 
 2880s|     7 |     8 |  8678 | 235.5 |    28M |   3 |7451 |  76 |  76 |   0 |  1 |   0 |   0 | 8.000000e+00 | 1.000000e+01 |  25.00%| unknown
 time | node  | left  |LP iter|LP it/n|mem/heur|mdpt |vars |cons |rows |cuts |sepa|confs|strbr|  dualbound   | primalbound  |  gap   | compl. 
 2880s|     8 |     9 |  8846 | 225.9 |    28M |   4 |7451 |  76 |  76 |   0 |  1 |   0 |   0 | 8.000000e+00 | 1.000000e+01 |  25.00%| unknown
 time | node  | left  |LP iter|LP it/n|mem/heur|mdpt |vars |cons |rows |cuts |sepa|confs|strbr|  dualbound   | primalbound  |  gap   | compl. 
 2881s|     9 |    10 |  8884 | 202.4 |    28M |   5 |7451 |  76 |  76 |   0 |  1 |   0 |   0 | 8.000000e+00 | 1.000000e+01 |  25.00%| unknown
 time | node  | left  |LP iter|LP it/n|mem/heur|mdpt |vars |cons |rows |cuts |sepa|confs|strbr|  dualbound   | primalbound  |  gap   | compl. 
 3327s|    10 |    11 |  9093 | 203.1 |    30M |   6 |7840 |  76 |  76 |   0 |  1 |   0 |   0 | 8.000000e+00 | 1.000000e+01 |  25.00%| unknown
 time | node  | left  |LP iter|LP it/n|mem/heur|mdpt |vars |cons |rows |cuts |sepa|confs|strbr|  dualbound   | primalbound  |  gap   | compl. 
 3327s|    11 |    12 |  9099 | 183.4 |    30M |   7 |7840 |  76 |  76 |   0 |  1 |   0 |   0 | 8.000000e+00 | 1.000000e+01 |  25.00%| unknown
 time | node  | left  |LP iter|LP it/n|mem/heur|mdpt |vars |cons |rows |cuts |sepa|confs|strbr|  dualbound   | primalbound  |  gap   | compl. 
 3327s|    12 |    13 |  9104 | 167.2 |    30M |   8 |7840 |  76 |  76 |   0 |  1 |   0 |   0 | 8.000000e+00 | 1.000000e+01 |  25.00%| unknown
 time | node  | left  |LP iter|LP it/n|mem/heur|mdpt |vars |cons |rows |cuts |sepa|confs|strbr|  dualbound   | primalbound  |  gap   | compl. 
 3328s|    13 |    14 |  9608 | 195.2 |    31M |   9 |7840 |  76 |  76 |   0 |  1 |   0 |   0 | 8.000000e+00 | 1.000000e+01 |  25.00%| unknown
 time | node  | left  |LP iter|LP it/n|mem/heur|mdpt |vars |cons |rows |cuts |sepa|confs|strbr|  dualbound   | primalbound  |  gap   | compl. 
 3329s|    14 |    15 |  9671 | 185.1 |    31M |   9 |7840 |  76 |  76 |   0 |  1 |   0 |   0 | 8.000000e+00 | 1.000000e+01 |  25.00%| unknown
 time | node  | left  |LP iter|LP it/n|mem/heur|mdpt |vars |cons |rows |cuts |sepa|confs|strbr|  dualbound   | primalbound  |  gap   | compl. 
 3330s|    15 |    16 |  9804 | 181.4 |    31M |   9 |7840 |  76 |  76 |   0 |  1 |   0 |   0 | 8.000000e+00 | 1.000000e+01 |  25.00%| unknown
 time | node  | left  |LP iter|LP it/n|mem/heur|mdpt |vars |cons |rows |cuts |sepa|confs|strbr|  dualbound   | primalbound  |  gap   | compl. 
 3330s|    16 |    17 |  9894 | 175.3 |    31M |   9 |7840 |  76 |  76 |   0 |  1 |   0 |   0 | 8.000000e+00 | 1.000000e+01 |  25.00%| unknown
 time | node  | left  |LP iter|LP it/n|mem/heur|mdpt |vars |cons |rows |cuts |sepa|confs|strbr|  dualbound   | primalbound  |  gap   | compl. 
 3331s|    17 |    18 | 10040 | 173.4 |    31M |   9 |7840 |  76 |  76 |   0 |  1 |   0 |   0 | 8.000000e+00 | 1.000000e+01 |  25.00%| unknown
 time | node  | left  |LP iter|LP it/n|mem/heur|mdpt |vars |cons |rows |cuts |sepa|confs|strbr|  dualbound   | primalbound  |  gap   | compl. 
 3332s|    18 |    19 | 10077 | 165.4 |    31M |   9 |7840 |  76 |  76 |   0 |  1 |   0 |   0 | 8.000000e+00 | 1.000000e+01 |  25.00%| unknown
 time | node  | left  |LP iter|LP it/n|mem/heur|mdpt |vars |cons |rows |cuts |sepa|confs|strbr|  dualbound   | primalbound  |  gap   | compl. 
 3333s|    19 |    20 | 10117 | 158.4 |    31M |   9 |7840 |  76 |  76 |   0 |  1 |   0 |   0 | 8.000000e+00 | 1.000000e+01 |  25.00%| unknown
 time | node  | left  |LP iter|LP it/n|mem/heur|mdpt |vars |cons |rows |cuts |sepa|confs|strbr|  dualbound   | primalbound  |  gap   | compl. 
 3334s|    20 |    21 | 10307 | 160.1 |    32M |  10 |8133 |  76 |  76 |   0 |  1 |   0 |   0 | 8.000000e+00 | 1.000000e+01 |  25.00%| unknown
 time | node  | left  |LP iter|LP it/n|mem/heur|mdpt |vars |cons |rows |cuts |sepa|confs|strbr|  dualbound   | primalbound  |  gap   | compl. 
 3335s|    21 |    22 | 10406 | 157.1 |    32M |  11 |8133 |  76 |  76 |   0 |  1 |   0 |   0 | 8.000000e+00 | 1.000000e+01 |  25.00%| unknown
 time | node  | left  |LP iter|LP it/n|mem/heur|mdpt |vars |cons |rows |cuts |sepa|confs|strbr|  dualbound   | primalbound  |  gap   | compl. 
 3336s|    22 |    23 | 10458 | 152.0 |    32M |  12 |8133 |  76 |  76 |   0 |  1 |   0 |   0 | 8.000000e+00 | 1.000000e+01 |  25.00%| unknown
 time | node  | left  |LP iter|LP it/n|mem/heur|mdpt |vars |cons |rows |cuts |sepa|confs|strbr|  dualbound   | primalbound  |  gap   | compl. 
 3337s|    23 |    24 | 10466 | 145.5 |    32M |  13 |8133 |  76 |  76 |   0 |  1 |   0 |   0 | 8.000000e+00 | 1.000000e+01 |  25.00%| unknown
 time | node  | left  |LP iter|LP it/n|mem/heur|mdpt |vars |cons |rows |cuts |sepa|confs|strbr|  dualbound   | primalbound  |  gap   | compl. 
 3337s|    24 |    25 | 10555 | 143.0 |    32M |  14 |8133 |  76 |  76 |   0 |  1 |   0 |   0 | 8.000000e+00 | 1.000000e+01 |  25.00%| unknown
 time | node  | left  |LP iter|LP it/n|mem/heur|mdpt |vars |cons |rows |cuts |sepa|confs|strbr|  dualbound   | primalbound  |  gap   | compl. 
 4075s|    25 |    26 | 11262 | 166.5 |    34M |  15 |9112 |  76 |  76 |   0 |  1 |   0 |   0 | 8.000000e+00 | 1.000000e+01 |  25.00%| unknown
 time | node  | left  |LP iter|LP it/n|mem/heur|mdpt |vars |cons |rows |cuts |sepa|confs|strbr|  dualbound   | primalbound  |  gap   | compl. 
 4076s|    26 |    27 | 11366 | 164.0 |    34M |  15 |9112 |  76 |  76 |   0 |  1 |   0 |   0 | 8.000000e+00 | 1.000000e+01 |  25.00%| unknown
 time | node  | left  |LP iter|LP it/n|mem/heur|mdpt |vars |cons |rows |cuts |sepa|confs|strbr|  dualbound   | primalbound  |  gap   | compl. 
 4247s|    27 |    28 | 11697 | 170.5 |    34M |  16 |9389 |  76 |  76 |   0 |  1 |   0 |   0 | 8.000000e+00 | 1.000000e+01 |  25.00%| unknown
 time | node  | left  |LP iter|LP it/n|mem/heur|mdpt |vars |cons |rows |cuts |sepa|confs|strbr|  dualbound   | primalbound  |  gap   | compl. 
 4875s|    28 |    29 | 12012 | 175.8 |    35M |  17 |9590 |  76 |  76 |   0 |  1 |   0 |   0 | 8.000000e+00 | 1.000000e+01 |  25.00%| unknown
 time | node  | left  |LP iter|LP it/n|mem/heur|mdpt |vars |cons |rows |cuts |sepa|confs|strbr|  dualbound   | primalbound  |  gap   | compl. 
 5126s|    29 |    30 | 12975 | 203.9 |    37M |  17 |9980 |  76 |  76 |   0 |  1 |   0 |   0 | 8.000000e+00 | 1.000000e+01 |  25.00%| unknown
 time | node  | left  |LP iter|LP it/n|mem/heur|mdpt |vars |cons |rows |cuts |sepa|confs|strbr|  dualbound   | primalbound  |  gap   | compl. 
 5256s|    30 |    31 | 13633 | 219.6 |    38M |  17 |  10k|  76 |  76 |   0 |  1 |   0 |   0 | 8.000000e+00 | 1.000000e+01 |  25.00%| unknown
 time | node  | left  |LP iter|LP it/n|mem/heur|mdpt |vars |cons |rows |cuts |sepa|confs|strbr|  dualbound   | primalbound  |  gap   | compl. 
 6108s|    31 |    32 | 13781 | 217.2 |    38M |  17 |  10k|  76 |  76 |   0 |  1 |   0 |   0 | 8.000000e+00 | 1.000000e+01 |  25.00%| unknown
 time | node  | left  |LP iter|LP it/n|mem/heur|mdpt |vars |cons |rows |cuts |sepa|confs|strbr|  dualbound   | primalbound  |  gap   | compl. 
 6109s|    32 |    31 | 13870 | 213.1 |    38M |  17 |  10k|  76 |  76 |   0 |  0 |   0 |   0 | 8.000000e+00 | 1.000000e+01 |  25.00%| unknown
 time | node  | left  |LP iter|LP it/n|mem/heur|mdpt |vars |cons |rows |cuts |sepa|confs|strbr|  dualbound   | primalbound  |  gap   | compl. 
 6252s|    33 |    32 | 14367 | 221.9 |    38M |  17 |  10k|  76 |  76 |   0 |  1 |   0 |   0 | 8.000000e+00 | 1.000000e+01 |  25.00%| unknown
 time | node  | left  |LP iter|LP it/n|mem/heur|mdpt |vars |cons |rows |cuts |sepa|confs|strbr|  dualbound   | primalbound  |  gap   | compl. 
 6253s|    34 |    33 | 14440 | 217.4 |    38M |  17 |  10k|  76 |  76 |   0 |  1 |   0 |   0 | 8.000000e+00 | 1.000000e+01 |  25.00%| unknown
 time | node  | left  |LP iter|LP it/n|mem/heur|mdpt |vars |cons |rows |cuts |sepa|confs|strbr|  dualbound   | primalbound  |  gap   | compl. 
 6682s|    35 |    34 | 14826 | 222.4 |    38M |  17 |  10k|  76 |  76 |   0 |  1 |   0 |   0 | 8.000000e+00 | 1.000000e+01 |  25.00%| unknown
 time | node  | left  |LP iter|LP it/n|mem/heur|mdpt |vars |cons |rows |cuts |sepa|confs|strbr|  dualbound   | primalbound  |  gap   | compl. 
 6684s|    36 |    35 | 14832 | 216.2 |    39M |  17 |  10k|  76 |  76 |   0 |  1 |   0 |   0 | 8.000000e+00 | 1.000000e+01 |  25.00%| unknown
 time | node  | left  |LP iter|LP it/n|mem/heur|mdpt |vars |cons |rows |cuts |sepa|confs|strbr|  dualbound   | primalbound  |  gap   | compl. 
 6944s|    37 |    36 | 15102 | 217.7 |    40M |  17 |  10k|  76 |  76 |   0 |  1 |   0 |   0 | 8.000000e+00 | 1.000000e+01 |  25.00%| unknown
 time | node  | left  |LP iter|LP it/n|mem/heur|mdpt |vars |cons |rows |cuts |sepa|confs|strbr|  dualbound   | primalbound  |  gap   | compl. 
 6946s|    38 |    37 | 15113 | 212.1 |    40M |  17 |  10k|  76 |  76 |   0 |  1 |   0 |   0 | 8.000000e+00 | 1.000000e+01 |  25.00%| unknown

SCIP Status        : solving was interrupted [time limit reached]
Solving Time (sec) : 7203.34
Solving Nodes      : 39
Primal Bound       : +1.00000000000000e+01 (2 solutions)
Dual Bound         : +8.00000000000000e+00
Gap                : 25.00 %
Running with parallel: False bidir: True symbreak: True
Number of Nodes:  76
49.241188584341735% holds
starting cheapest insertion heuristic
Heuristic without TSP improvement:  12
Heuristic without TSP improvement time:  0.1
Heuristic Sol:  10
Heuristic total time:  0.4
[[13, 16, 50, 65, 1, 19, 43, 53], [28, 4, 18, 12, 56, 54, 3], [27, 14, 2, 51, 32, 0, 73, 61], [30, 31, 59, 72, 10, 33, 35, 47], [62, 75, 20, 49, 29, 37], [42, 15, 39, 7, 74, 34, 8], [66, 58, 36, 9, 26, 21, 63, 64, 46, 24], [69, 38, 22, 57, 23, 40, 11, 48, 25, 5], [70, 52, 55, 44, 60, 41, 6], [71, 68, 45, 67, 17]]
Instance path:  /home/htc/mghannam/SCRATCH/lccp-rust/data/t84_eil76.npcc
Timelimit:  7200
Heuristic without TSP improvement:  12
Heuristic without TSP improvement time:  0.1
Heuristic Sol:  10
Heuristic total time:  1.1
at 1 zero_duals: 66
at1, LP obj: 10.0 n_added_paths: 1545
at 1 zero_duals: 52
at1, LP obj: 10.0 n_added_paths: 627
at 1 zero_duals: 31
at1, LP obj: 9.999999999999998 n_added_paths: 1095
at 1 zero_duals: 21
at1, LP obj: 10.0 n_added_paths: 1139
at 1 zero_duals: 15
at1, LP obj: 9.285427359964293 n_added_paths: 1048
at 1 zero_duals: 3
at1, LP obj: 8.963072939722807 n_added_paths: 829
at 1 zero_duals: 2
at1, LP obj: 8.403168661568978 n_added_paths: 407
at 1 zero_duals: 2
at1, LP obj: 8.176623074868997 n_added_paths: 278
at1, LP obj: 8.036790535484762 n_added_paths: 85
Switching to elementary pricing
at1, LP obj: 7.976649520509058 n_added_paths: 210
updated lowerbound from 1.0 to 7
at 1 zero_duals: 1
Switching to elementary pricing
at1, LP obj: 7.88653427168569 n_added_paths: 102
updated lowerbound from 7.0 to 8
Gap too small = 0, stopping pricing with lb = 8
Gap too small = 0, stopping pricing with lb = 8
Gap too small = 0, stopping pricing with lb = 8
Gap too small = 0, stopping pricing with lb = 8
Gap too small = 0, stopping pricing with lb = 8
Gap too small = 0, stopping pricing with lb = 8
Gap too small = 0, stopping pricing with lb = 8
Gap too small = 0, stopping pricing with lb = 8
Gap too small = 0, stopping pricing with lb = 8
at 18 zero_duals: 1
Switching to elementary pricing
at18, LP obj: 8.02024904719107 n_added_paths: 389
Gap too small = 0, stopping pricing with lb = 8
Gap too small = 0, stopping pricing with lb = 8
Gap too small = 0, stopping pricing with lb = 8
Gap too small = 0, stopping pricing with lb = 8
Gap too small = 0, stopping pricing with lb = 8
Gap too small = 0, stopping pricing with lb = 8
Gap too small = 0, stopping pricing with lb = 8
Gap too small = 0, stopping pricing with lb = 8
Gap too small = 0, stopping pricing with lb = 8
Gap too small = 0, stopping pricing with lb = 8
at 38 zero_duals: 3
at38, LP obj: 8.0114164142584 n_added_paths: 293
Gap too small = 0, stopping pricing with lb = 8
Gap too small = 0, stopping pricing with lb = 8
Gap too small = 0, stopping pricing with lb = 8
Gap too small = 0, stopping pricing with lb = 8
Gap too small = 0, stopping pricing with lb = 8
at 48 zero_duals: 2
Switching to elementary pricing
at48, LP obj: 8.276760466676256 n_added_paths: 864
at 48 zero_duals: 2
Switching to elementary pricing
at48, LP obj: 8.069991945091866 n_added_paths: 93
at 48 zero_duals: 1
Switching to elementary pricing
at48, LP obj: 8.049628410087552 n_added_paths: 18
at 48 zero_duals: 1
Switching to elementary pricing
at48, LP obj: 8.04910770390851 n_added_paths: 4
updated lowerbound from 8.0 to 9
Gap too small = 0, stopping pricing with lb = 9
Gap too small = 0, stopping pricing with lb = 8
at 52 zero_duals: 2
at52, LP obj: 8.093434534345764 n_added_paths: 177
at 52 zero_duals: 2
Switching to elementary pricing
at52, LP obj: 8.034920634920635 n_added_paths: 100
Gap too small = 0, stopping pricing with lb = 8
at 54 zero_duals: 4
Switching to elementary pricing
at54, LP obj: 8.085080115884207 n_added_paths: 177
at 54 zero_duals: 1
Switching to elementary pricing
at54, LP obj: 8.03120872784092 n_added_paths: 16
at 54 zero_duals: 1
Switching to elementary pricing
at54, LP obj: 8.028116976028539 n_added_paths: 6
at 54 zero_duals: 1
Switching to elementary pricing
at54, LP obj: 8.027166080657958 n_added_paths: 2
updated lowerbound from 8.0 to 9
Gap too small = 0, stopping pricing with lb = 9
at 55 zero_duals: 75
Switching to elementary pricing
at55, LP obj: 1e+20 n_added_paths: 1
updated lowerbound from 8.0 to 100000000000000000000
at 55 zero_duals: 1
Switching to elementary pricing
at55, LP obj: 9.0269601511835 n_added_paths: 363
at 55 zero_duals: 1
Switching to elementary pricing
at55, LP obj: 8.98464322079216 n_added_paths: 26
updated lowerbound from 8.0 to 9
Gap too small = 0, stopping pricing with lb = 9
at 47 zero_duals: 1
Switching to elementary pricing
at47, LP obj: 8.014022928082076 n_added_paths: 118
Gap too small = 0, stopping pricing with lb = 8
Switching to elementary pricing
at60, LP obj: 8.013700589459084 n_added_paths: 5
Switching to elementary pricing
at60, LP obj: 8.009301915680043 n_added_paths: 5
Switching to elementary pricing
at60, LP obj: 8.008550626755124 n_added_paths: 4
at 60 zero_duals: 2
Switching to elementary pricing
at60, LP obj: 8.008220664329828 n_added_paths: 1
at 60 zero_duals: 1
Switching to elementary pricing
at60, LP obj: 8.008220664329828 n_added_paths: 1
updated lowerbound from 8.0 to 9
Gap too small = 0, stopping pricing with lb = 9
at 61 zero_duals: 73
Switching to elementary pricing
at61, LP obj: 1e+20 n_added_paths: 3
updated lowerbound from 8.0 to 100000000000000000000
at 61 zero_duals: 74
Switching to elementary pricing
at61, LP obj: 1e+20 n_added_paths: 0
updated lowerbound from 8.0 to 100000000000000000000
at 39 zero_duals: 2
at39, LP obj: 8.06052257499919 n_added_paths: 114
at 39 zero_duals: 3
Switching to elementary pricing
at39, LP obj: 8.005337316049806 n_added_paths: 48
Gap too small = 0, stopping pricing with lb = 8
Gap too small = 0, stopping pricing with lb = 8
at 66 zero_duals: 1
Switching to elementary pricing
at66, LP obj: 8.072803923786413 n_added_paths: 58
at 66 zero_duals: 1
Switching to elementary pricing
at66, LP obj: 8.032257417936675 n_added_paths: 6
at 66 zero_duals: 1
Switching to elementary pricing
at66, LP obj: 8.03175608288876 n_added_paths: 0
updated lowerbound from 8.0 to 9
Gap too small = 0, stopping pricing with lb = 8
at 70 zero_duals: 3
Switching to elementary pricing
at70, LP obj: 8.160292654662094 n_added_paths: 315
at 70 zero_duals: 3
Switching to elementary pricing
at70, LP obj: 8.119939781952594 n_added_paths: 8
updated lowerbound from 8.0 to 9
Gap too small = 0, stopping pricing with lb = 9
Gap too small = 0, stopping pricing with lb = 8
at 74 zero_duals: 10
at74, LP obj: 8.219349822634724 n_added_paths: 296
at 74 zero_duals: 1
Switching to elementary pricing
at74, LP obj: 8.13420922521697 n_added_paths: 35
Switching to elementary pricing
at74, LP obj: 8.114035087719298 n_added_paths: 4
Best solution found:
t_[13, 16, 50, 65, 1, 19, 43, 53, 13] 1.0 1.0
checking cycle [13, 16, 50, 65, 1, 19, 43, 53, 13]
[13, 16, 50, 65, 1, 19, 43, 53, 13] 75 71
t_[28, 4, 18, 3, 12, 56, 54, 8, 28] 1.0 1.0
checking cycle [28, 4, 18, 3, 12, 56, 54, 8, 28]
[28, 4, 18, 3, 12, 56, 54, 8, 28] 82 82
t_[27, 14, 2, 51, 32, 0, 73, 61, 27] 1.0 1.0
checking cycle [27, 14, 2, 51, 32, 0, 73, 61, 27]
[27, 14, 2, 51, 32, 0, 73, 61, 27] 69 64
t_[30, 31, 59, 72, 10, 33, 35, 47, 30] 1.0 1.0
checking cycle [30, 31, 59, 72, 10, 33, 35, 47, 30]
[30, 31, 59, 72, 10, 33, 35, 47, 30] 69 64
t_[62, 75, 20, 49, 29, 37, 62] 1.0 1.0
checking cycle [62, 75, 20, 49, 29, 37, 62]
[62, 75, 20, 49, 29, 37, 62] 67 64
t_[42, 64, 39, 15, 7, 74, 34, 42] 1.0 1.0
checking cycle [42, 64, 39, 15, 7, 74, 34, 42]
[42, 64, 39, 15, 7, 74, 34, 42] 68 64
t_[66, 58, 36, 9, 26, 67, 21, 63, 46, 24, 66] 1.0 1.0
checking cycle [66, 58, 36, 9, 26, 67, 21, 63, 46, 24, 66]
[66, 58, 36, 9, 26, 67, 21, 63, 46, 24, 66] 74 68
t_[38, 69, 5, 25, 48, 57, 11, 40, 23, 22, 38] 1.0 1.0
checking cycle [38, 69, 5, 25, 48, 57, 11, 40, 23, 22, 38]
[38, 69, 5, 25, 48, 57, 11, 40, 23, 22, 38] 73 66
t_[70, 60, 44, 45, 71, 55, 52, 70] 1.0 1.0
checking cycle [70, 60, 44, 45, 71, 55, 52, 70]
[70, 60, 44, 45, 71, 55, 52, 70] 70 64
t_[68, 17, 6, 41, 68] 1.0 1.0
checking cycle [68, 17, 6, 41, 68]
[68, 17, 6, 41, 68] 74 61
